db/data/2201613243269161764428601292853036719387.z3.out
-------------------
2500.093216954
